p cnf 10 50
-7 4 -5 0
1 -8 -5 0
-2 -4 -3 0
-2 -5 -9 0
-9 -4 2 0
-8 -1 2 0
-4 7 8 0
-1 3 -5 0
-7 -1 10 0
4 1 2 0
5 10 -2 0
-6 -9 -5 0
4 -6 7 0
10 -4 -9 0
9 8 7 0
-3 1 -10 0
9 -6 5 0
-5 -6 -3 0
-1 -3 5 0
-8 5 4 0
-1 5 2 0
8 -4 -5 0
-3 -1 -9 0
1 3 9 0
-1 3 -6 0
6 1 10 0
7 6 -4 0
-2 -5 4 0
4 -1 3 0
1 -4 -6 0
-2 3 7 0
-9 -2 10 0
-6 -4 8 0
-10 -2 6 0
4 7 2 0
-9 -10 -7 0
10 -9 7 0
4 -3 8 0
6 -4 7 0
6 3 -8 0
4 1 3 0
3 7 -9 0
-6 5 -10 0
1 -2 9 0
-6 -4 9 0
-8 -9 -1 0
2 -1 -6 0
7 2 -8 0
-8 6 9 0
-7 -10 -8 0